&FORCE_EVAL
   &SUBSYS
      &KIND Al
        BASIS_SET ORB TZV2P-GTH-q3
        POTENTIAL GTH-PBE-q3
      &END KIND
      &KIND O
        BASIS_SET ORB TZV2P-GTH-q6
        POTENTIAL GTH-PBE-q6
      &END KIND
      &KIND Si
        BASIS_SET ORB TZV2P-GTH-q4
        POTENTIAL GTH-PBE-q4
      &END KIND
      &KIND H
        BASIS_SET ORB TZV2P-GTH-q1
        POTENTIAL GTH-PBE-q1
      &END KIND
      &CELL
         PERIODIC XYZ
      &END CELL
   &END SUBSYS
   &DFT
      BASIS_SET_FILE_NAME GTH_BASIS_SETS
      BASIS_SET_FILE_NAME BASIS_MOLOPT
      POTENTIAL_FILE_NAME POTENTIAL
      &XC
         &VDW_POTENTIAL
            POTENTIAL_TYPE PAIR_POTENTIAL
            &PAIR_POTENTIAL
               TYPE DFTD3
               R_CUTOFF 15.0
               LONG_RANGE_CORRECTION .TRUE.
               REFERENCE_FUNCTIONAL revPBE
               PARAMETER_FILE_NAME dftd3.dat
            &END PAIR_POTENTIAL
         &END VDW_POTENTIAL
         &XC_GRID
            XC_DERIV SPLINE2_SMOOTH
         &END XC_GRID
         &XC_FUNCTIONAL
            &PBE
               PARAMETRIZATION REVPBE
            &END PBE
         &END XC_FUNCTIONAL
      &END XC
      &QS
         EPS_DEFAULT 1e-12
         EPS_PGF_ORB 1e-14
      &END QS
      &SCF
         SCF_GUESS ATOMIC
         MAX_SCF 20
         EPS_SCF 5e-07
         #&PRINT
         #   &RESTART
         #      ADD_LAST NUMERIC
         #      &EACH
         #         QS_SCF 0
         #      &END EACH
         #   &END RESTART
         #&END PRINT
         &OUTER_SCF
            MAX_SCF 20
            EPS_SCF 5e-07
         &END OUTER_SCF
         &OT
            MINIMIZER DIIS
            PRECONDITIONER FULL_ALL
         &END OT
      &END SCF
      &MGRID
         CUTOFF 1050.0
         NGRIDS 5
      &END MGRID
   &END DFT
&END FORCE_EVAL
